NAME: ../File/prFile/tspFile/tsp_file32.tsp
COMMENT: TSP file generated by Python
TYPE: TSP
DIMENSION: 30
EDGE_WEIGHT_TYPE: EUC_2D
NODE_COORD_SECTION
1 46 81
2 50 77
3 93 96
4 74 55
5 64 89
6 2 77
7 10 48
8 64 9
9 37 39
10 71 68
11 89 61
12 97 14
13 27 59
14 56 100
15 66 54
16 52 46
17 40 64
18 57 4
19 17 39
20 98 2
21 77 55
22 76 52
23 62 6
24 95 77
25 15 99
26 21 82
27 20 75
28 91 71
29 18 74
30 94 39
EOF
